10	5
0	5	4	2	3	1	5
1	3	8	10	6
2	3	10	7	8
3	3	6	8	10
4	1	7
5	2	9	7
6	1	11
7	1	11
8	1	11
9	1	11
10	1	11
11	0
0	0	0	0	0	0	0
1	5	0	0	0	5	4
2	10	1	0	0	1	2
3	2	4	0	0	2	2
4	9	3	1	2	0	0
5	8	1	4	5	4	0
6	6	0	0	5	2	0
7	8	0	3	4	0	1
8	10	0	0	5	4	1
9	6	0	0	0	4	0
10	4	0	0	0	4	0
11	0	0	0	0	0	0
4	4	5	5	5
